20
32.0
0 19 39.62 29.85
1 18 23.89 37.67
10 9 53.49 35.91
11 8 42.44 22.21
12 7 42.61 22.17
13 6 29.84 40.21
14 5 29.39 25.32
15 4 48.65 24.98
16 3 35.56 34.01
17 2 28.35 9.4
18 1 39.42 58.28
2 17 36.27 29.71
3 16 42.49 31.55
4 15 36.86 32.8
5 14 49.19 29.78
6 13 34.29 35.16
7 12 44.98 27.94
8 11 43.03 18.92
9 10 49.1 38.12
